(set-logic QF_S)
(declare-const c1 String)
(declare-const c2 String)
(declare-const c3 String)
(declare-const c4 String)
(declare-const c5 String)
(assert (= (str.++ c1 c2 c3 c4 c5) "abcde"))
(check-sat)
(get-model)